\Problem name: 

Minimize
OBJROW: - var(1) -2 var(2) -3 var(3) -4 var(4) -7 var(5) -5 var(6) -6 var(7) -8 var(8) -9 var(9) -5 var(10)
Subject To
Bounds
 0 <= var(1) <= 1
 0 <= var(2) <= 1
 0 <= var(3) <= 1
 0 <= var(4) <= 1
 0 <= var(5) <= 1
 0 <= var(6) <= 1
 0 <= var(7) <= 1
 0 <= var(8) <= 1
 0 <= var(9) <= 1
 0 <= var(10) <= 1
 -10 <= zCost <= 5
Integers
var(1) var(2) var(3) var(4) var(5) var(6) var(7) var(8) var(9) var(10) 
zCost 
End
